NAME: cum240.tsp
TYPE: TSP
COMMENT: User-generated TSP file
DIMENSION: 240
EDGE_WEIGHT_TYPE: EUC_2D
NODE_COORD_SECTION
1 239.0 113.0
2 19.0 189.0
3 90.0 128.0
4 81.0 25.0
5 206.0 107.0
6 51.0 45.0
7 87.0 7.0
8 25.0 40.0
9 10.0 97.0
10 175.0 86.0
11 15.0 150.0
12 111.0 29.0
13 134.0 7.0
14 9.0 9.0
15 193.0 67.0
16 42.0 87.0
17 39.0 127.0
18 117.0 55.0
19 139.0 111.0
20 179.0 162.0
21 18.0 101.0
22 165.0 160.0
23 74.0 53.0
24 36.0 1.0
25 104.0 237.0
26 137.0 58.0
27 41.0 104.0
28 76.0 100.0
29 132.0 156.0
30 23.0 237.0
31 140.0 128.0
32 229.0 54.0
33 240.0 32.0
34 198.0 216.0
35 45.0 91.0
36 164.0 8.0
37 169.0 144.0
38 9.0 79.0
39 30.0 112.0
40 88.0 49.0
41 180.0 112.0
42 119.0 106.0
43 193.0 131.0
44 111.0 124.0
45 210.0 93.0
46 154.0 187.0
47 195.0 14.0
48 173.0 140.0
49 188.0 20.0
50 140.0 77.0
51 150.0 9.0
52 41.0 159.0
53 86.0 86.0
54 130.0 50.0
55 34.0 238.0
56 84.0 122.0
57 18.0 188.0
58 25.0 220.0
59 228.0 126.0
60 23.0 216.0
61 15.0 123.0
62 42.0 158.0
63 40.0 183.0
64 177.0 176.0
65 59.0 186.0
66 87.0 17.0
67 116.0 53.0
68 226.0 192.0
69 151.0 142.0
70 173.0 111.0
71 141.0 75.0
72 165.0 97.0
73 159.0 67.0
74 35.0 205.0
75 41.0 155.0
76 161.0 201.0
77 179.0 60.0
78 107.0 59.0
79 6.0 8.0
80 193.0 22.0
81 104.0 27.0
82 15.0 143.0
83 31.0 4.0
84 236.0 69.0
85 66.0 113.0
86 177.0 30.0
87 112.0 188.0
88 101.0 7.0
89 51.0 215.0
90 23.0 78.0
91 92.0 93.0
92 119.0 216.0
93 208.0 141.0
94 70.0 172.0
95 50.0 85.0
96 121.0 13.0
97 118.0 206.0
98 84.0 215.0
99 51.0 32.0
100 90.0 88.0
101 146.0 197.0
102 38.0 58.0
103 194.0 142.0
104 139.0 127.0
105 147.0 72.0
106 52.0 14.0
107 29.0 136.0
108 44.0 133.0
109 6.0 191.0
110 22.0 114.0
111 239.0 109.0
112 47.0 2.0
113 177.0 5.0
114 187.0 51.0
115 184.0 37.0
116 123.0 186.0
117 177.0 149.0
118 189.0 77.0
119 233.0 38.0
120 85.0 137.0
121 191.0 209.0
122 41.0 216.0
123 85.0 199.0
124 106.0 150.0
125 111.0 136.0
126 109.0 101.0
127 71.0 92.0
128 122.0 214.0
129 155.0 85.0
130 109.0 204.0
131 182.0 202.0
132 223.0 47.0
133 169.0 216.0
134 188.0 172.0
135 29.0 177.0
136 88.0 194.0
137 192.0 76.0
138 196.0 204.0
139 37.0 100.0
140 227.0 172.0
141 197.0 120.0
142 4.0 119.0
143 93.0 66.0
144 125.0 165.0
145 222.0 164.0
146 2.0 224.0
147 119.0 97.0
148 10.0 212.0
149 226.0 230.0
150 84.0 89.0
151 187.0 77.0
152 31.0 57.0
153 49.0 102.0
154 159.0 109.0
155 64.0 232.0
156 35.0 224.0
157 65.0 54.0
158 17.0 128.0
159 64.0 168.0
160 219.0 15.0
161 216.0 175.0
162 221.0 137.0
163 111.0 201.0
164 79.0 110.0
165 232.0 102.0
166 27.0 201.0
167 112.0 134.0
168 120.0 190.0
169 165.0 238.0
170 101.0 155.0
171 227.0 194.0
172 113.0 179.0
173 229.0 134.0
174 220.0 42.0
175 190.0 200.0
176 234.0 148.0
177 149.0 166.0
178 75.0 2.0
179 168.0 168.0
180 189.0 194.0
181 72.0 37.0
182 169.0 215.0
183 195.0 182.0
184 178.0 152.0
185 98.0 231.0
186 49.0 107.0
187 75.0 126.0
188 158.0 63.0
189 24.0 150.0
190 120.0 34.0
191 87.0 199.0
192 167.0 223.0
193 112.0 204.0
194 58.0 159.0
195 236.0 207.0
196 33.0 67.0
197 159.0 25.0
198 120.0 234.0
199 51.0 230.0
200 44.0 26.0
201 202.0 189.0
202 32.0 56.0
203 184.0 32.0
204 181.0 230.0
205 29.0 28.0
206 121.0 219.0
207 17.0 115.0
208 7.0 221.0
209 116.0 118.0
210 215.0 231.0
211 196.0 27.0
212 39.0 225.0
213 132.0 38.0
214 143.0 96.0
215 71.0 30.0
216 147.0 198.0
217 15.0 26.0
218 64.0 49.0
219 3.0 118.0
220 222.0 101.0
221 106.0 219.0
222 188.0 85.0
223 207.0 75.0
224 146.0 35.0
225 114.0 211.0
226 107.0 16.0
227 119.0 41.0
228 36.0 47.0
229 108.0 86.0
230 28.0 50.0
231 21.0 128.0
232 209.0 155.0
233 191.0 167.0
234 93.0 91.0
235 168.0 231.0
236 133.0 119.0
237 174.0 7.0
238 84.0 115.0
239 125.0 176.0
240 215.0 225.0
EOF





